p cnf 27 73
a 24 9 0
e 1 2 3 4 5 6 7 8 10 11 12 13 14 15 16 17 18 19 20 21 22 23 25 26 27 0
1 -2 -3 0
-1 2 -3 0
1 2 3 0
-1 -2 3 0
3 2 -4 0
-3 -2 -4 0
3 -2 4 0
-3 2 4 0
5 3 0
5 3 0
-3 -5 0
7 6 0
7 -3 0
-6 3 -7 0
9 7 0
9 -8 0
-7 8 -9 0
-10 -5 0
-10 -9 0
5 9 10 0
-11 4 0
-11 10 0
-4 -10 11 0
13 7 0
13 -12 0
-7 12 -13 0
15 13 0
15 14 0
-13 -14 -15 0
-16 -11 0
-16 15 0
11 -15 16 0
3 12 -17 0
-3 -12 -17 0
3 -12 17 0
-3 12 17 0
16 17 -18 0
-16 -17 -18 0
16 -17 18 0
-16 17 18 0
19 -2 0
19 1 0
2 -1 -19 0
-20 7 0
-20 -19 0
-7 19 20 0
21 -12 -22 0
-21 12 -22 0
21 12 22 0
-21 -12 22 0
-24 -6 0
-24 23 0
6 -23 24 0
22 24 -25 0
-22 -24 -25 0
22 -24 25 0
-22 24 25 0
-20 -25 -26 0
20 25 -26 0
-20 25 26 0
20 -25 26 0
18 26 -27 0
-18 -26 -27 0
18 -26 27 0
-18 26 27 0
-4 17 -20 23 -18 13 14 0
24 3 13 -17 0
-16 23 11 7 0
4 26 -7 -10 -5 -21 23 0
-4 27 18 0
-3 9 16 -1 23 0
-18 -2 25 -20 -5 -10 -6 13 0
27 0
